Route #1: 11 60 20 43 4 6 19
Route #2: 18 57 30 26 16
Route #3: 25 61 38 17 55 22
Route #4: 39 5 27 14 29 21
Route #5: 46 40 13 7 36 28 9
Route #6: 50 10 3 42 2 15 54 41
Route #7: 51 52 59 23 56 34
Route #8: 53 44 31 37 49
Route #9: 62 47 24 8
Route #10: 63 58 33 48 35 12 45 32
cost 1341